
******************************************************************************
This program contains Ipopt, a library for large-scale nonlinear optimization.
 Ipopt is released as open source code under the Eclipse Public License (EPL).
         For more information visit http://projects.coin-or.org/Ipopt

This version of Ipopt was compiled from source code available at
    https://github.com/IDAES/Ipopt as part of the Institute for the Design of
    Advanced Energy Systems Process Systems Engineering Framework (IDAES PSE
    Framework) Copyright (c) 2018-2019. See https://github.com/IDAES/idaes-pse.

This version of Ipopt was compiled using HSL, a collection of Fortran codes
    for large-scale scientific computation.  All technical papers, sales and
    publicity material resulting from use of the HSL codes within IPOPT must
    contain the following acknowledgement:
        HSL, a collection of Fortran codes for large-scale scientific
        computation. See http://www.hsl.rl.ac.uk.
******************************************************************************

This is Ipopt version 3.13.2, running with linear solver ma27.

Number of nonzeros in equality constraint Jacobian...:      928
Number of nonzeros in inequality constraint Jacobian.:        0
Number of nonzeros in Lagrangian Hessian.............:      806

Total number of variables............................:      403
                     variables with only lower bounds:      124
                variables with lower and upper bounds:      217
                     variables with only upper bounds:        0
Total number of equality constraints.................:      402
Total number of inequality constraints...............:        0
        inequality constraints with only lower bounds:        0
   inequality constraints with lower and upper bounds:        0
        inequality constraints with only upper bounds:        0

iter    objective    inf_pr   inf_du lg(mu)  ||d||  lg(rg) alpha_du alpha_pr  ls
   0  0.0000000e+00 5.49e-01 4.15e-14  -1.0 0.00e+00    -  0.00e+00 0.00e+00   0
   1  1.9650587e+00 5.42e-01 2.91e+05  -1.0 1.07e+07    -  5.13e-02 1.17e-02h  4
   2  3.8160259e+00 5.39e-01 3.05e+05  -1.0 1.49e+07    -  4.22e-02 4.18e-03h  6
   3  8.0888771e+00 5.36e-01 3.23e+05  -1.0 2.04e+07    -  3.20e-02 5.30e-03h  6
   4  1.1197548e+01 5.35e-01 3.27e+05  -1.0 2.25e+07    -  3.24e-02 2.50e-03h  7
   5  4.4401092e+02 4.96e-01 5.02e+06  -1.0 2.29e+07    -  3.93e-02 8.06e-02h  2
   6  4.8337450e+02 4.96e-01 5.02e+06  -1.0 3.83e+07    -  5.65e-02 2.27e-03h  6
   7  6.5531631e+02 4.96e-01 5.89e+06  -1.0 3.90e+07    -  5.70e-02 8.69e-03h  4
   8  2.7812270e+03 5.32e-01 5.09e+06  -1.0 4.17e+07    -  6.41e-02 5.71e-02h  1
   9  2.8164441e+03 5.32e-01 5.09e+06  -1.0 3.83e+07    -  8.29e-02 7.03e-04h  1
iter    objective    inf_pr   inf_du lg(mu)  ||d||  lg(rg) alpha_du alpha_pr  ls
  10  2.8166127e+03 5.32e-01 5.09e+06  -1.0 5.15e+07    -  8.39e-02 4.35e-05h  2
  11  2.8166087e+03 5.32e-01 1.13e+07  -1.0 5.63e+07    -  7.85e-02 2.09e-05h 10
  12  2.8166070e+03 5.32e-01 1.46e+08  -1.0 7.52e+07    -  7.28e-02 5.89e-06h 11
  13  2.8166057e+03 5.32e-01 3.08e+09  -1.0 2.85e+08    -  2.15e-02 1.03e-06h 11
  14r 2.8166057e+03 5.32e-01 1.00e+03  -0.3 0.00e+00    -  0.00e+00 3.17e-07R 17
  15r 2.8166194e+03 5.35e-01 9.97e+02  -0.3 1.89e+04    -  2.95e-03 1.84e-03f  1
  16r 2.8166681e+03 5.31e-01 9.91e+02  -0.3 2.24e+04    -  6.27e-03 5.82e-03f  1
  17r 2.8167281e+03 5.41e-01 9.83e+02  -0.3 1.80e+04    -  7.75e-03 8.73e-03f  1
  18r 2.8167492e+03 5.54e-01 1.01e+03  -0.3 1.31e+04    -  8.07e-03 1.31e-02f  1
  19r 2.8167643e+03 5.96e-01 1.01e+03  -0.3 2.37e+03    -  1.02e-03 6.53e-03f  1
iter    objective    inf_pr   inf_du lg(mu)  ||d||  lg(rg) alpha_du alpha_pr  ls
  20r 2.8167656e+03 5.97e-01 9.99e+02  -0.3 9.12e+03    -  1.18e-02 8.04e-04f  1
  21r 2.8167668e+03 5.97e-01 9.99e+02  -0.3 9.81e+03    -  2.61e-04 9.50e-04f  1
  22r 2.8167685e+03 5.99e-01 1.00e+03  -0.3 9.84e+03    -  1.19e-02 1.79e-03f  1
  23r 2.8167752e+03 6.05e-01 9.87e+02  -0.3 6.02e+03    -  2.39e-03 6.60e-03f  1
  24r 2.8167875e+03 6.09e-01 9.73e+02  -0.3 9.54e+03    -  1.99e-02 1.36e-02f  1
  25r 2.8167954e+03 6.13e-01 9.64e+02  -0.3 6.39e+03    -  1.61e-02 8.72e-03f  1
  26r 2.8168139e+03 6.13e-01 9.43e+02  -0.3 5.54e+03    -  2.26e-02 2.17e-02f  1
  27r 2.8168212e+03 6.13e-01 9.33e+02  -0.3 4.95e+03    -  4.58e-03 1.13e-02f  1
  28r 2.8168232e+03 6.13e-01 9.29e+02  -0.3 4.25e+03    -  1.01e-03 4.64e-03f  1
  29r 2.8168243e+03 6.12e-01 9.26e+02  -0.3 3.98e+03    -  1.60e-02 2.72e-03f  1
iter    objective    inf_pr   inf_du lg(mu)  ||d||  lg(rg) alpha_du alpha_pr  ls
  30r 2.8168289e+03 6.11e-01 9.15e+02  -0.3 2.09e+03    -  1.47e-02 1.12e-02f  1
  31r 2.8168375e+03 6.04e-01 8.96e+02  -0.3 2.07e+03    -  2.02e-02 2.08e-02f  1
  32r 2.8168390e+03 5.82e-01 8.92e+02  -0.3 1.61e+03    -  2.30e-04 4.86e-03f  1
  33r 2.8168391e+03 5.82e-01 8.89e+02  -0.3 1.54e+03    -  3.71e-02 1.23e-03f  1
  34r 2.8168399e+03 5.81e-01 8.60e+02  -0.3 1.15e+03    -  6.95e-02 2.94e-02f  1
  35r 2.8168431e+03 5.74e-01 7.72e+02  -0.3 1.11e+03    -  4.81e-02 1.07e-01f  1
  36r 2.8168437e+03 5.72e-01 7.36e+02  -0.3 9.72e+02    -  2.72e-01 2.56e-02f  1
  37r 2.8168456e+03 5.65e-01 6.80e+02  -0.3 9.44e+02    -  1.76e-02 8.20e-02f  1
  38r 2.8168462e+03 5.63e-01 6.55e+02  -0.3 8.57e+02    -  1.47e-01 2.98e-02f  1
  39r 2.8168462e+03 5.62e-01 6.36e+02  -0.3 2.40e+00   0.0 1.12e-01 4.32e-02f  1
iter    objective    inf_pr   inf_du lg(mu)  ||d||  lg(rg) alpha_du alpha_pr  ls
  40r 2.8168462e+03 5.59e-01 7.18e+02  -0.3 5.49e+00  -0.5 2.80e-01 9.88e-02f  1
  41r 2.8168462e+03 5.46e-01 4.83e+02  -0.3 1.18e+01  -1.0 3.49e-01 1.99e-01f  1
  42r 2.8168462e+03 5.45e-01 4.30e+02  -0.3 4.09e+01  -1.4 1.06e-01 1.08e-01f  1
  43r 2.8168462e+03 5.44e-01 8.42e+02  -0.3 8.07e+00  -1.0 6.42e-01 1.55e-01f  1
  44r 2.8168462e+03 5.33e-01 6.57e+01  -0.3 2.86e+00  -0.6 9.29e-01 1.00e+00f  1
  45r 2.8168462e+03 5.35e-01 8.49e+01  -0.3 1.94e-01   0.7 9.90e-01 1.00e+00f  1
  46r 2.8168462e+03 5.35e-01 1.12e+02  -0.3 1.03e-01   2.1 5.84e-01 5.43e-01H  1
  47r 2.8168462e+03 5.35e-01 3.32e+02  -0.3 1.40e-02   4.3 9.90e-01 8.17e-01h  1
  48r 2.8168462e+03 5.35e-01 2.05e+02  -0.3 3.38e-03   3.8 5.72e-01 1.00e+00f  1
  49r 2.8168462e+03 5.35e-01 2.82e+02  -0.3 4.66e-03   3.4 5.17e-01 1.00e+00f  1
iter    objective    inf_pr   inf_du lg(mu)  ||d||  lg(rg) alpha_du alpha_pr  ls
  50r 2.8168462e+03 5.35e-01 1.38e+02  -0.3 2.88e-03   4.7 1.00e+00 1.00e+00f  1
  51r 2.8168462e+03 5.35e-01 3.42e+02  -0.3 4.78e-02   4.2 2.03e-01 2.20e-01f  1
  52r 2.8168462e+03 5.35e-01 2.38e+02  -0.3 5.37e-03   4.6 1.00e+00 1.00e+00f  1
  53r 2.8168462e+03 5.35e-01 7.32e+02  -0.3 1.98e-02   4.2 8.57e-01 1.00e+00f  1
  54r 2.8168462e+03 5.35e-01 1.72e+03  -0.3 1.53e-01   3.7 1.00e+00 2.44e-01f  1
  55r 2.8168462e+03 5.35e-01 7.46e+02  -0.3 1.86e-01   3.2 1.00e+00 3.56e-01f  1
  56r 2.8168462e+03 5.35e-01 5.00e+02  -0.3 1.01e-02   2.7 1.00e+00 1.00e+00H  1
  57r 2.8168462e+03 5.35e-01 8.65e+02  -0.3 1.07e-01   3.2 1.96e-01 2.01e-01H  1
  58r 2.8168462e+03 5.35e-01 6.11e+02  -0.3 8.78e-02   3.6 5.15e-02 2.33e-01h  2
  59r 2.8168462e+03 5.35e-01 2.04e+03  -0.3 4.97e-02   4.9 8.02e-02 3.70e-01h  1
iter    objective    inf_pr   inf_du lg(mu)  ||d||  lg(rg) alpha_du alpha_pr  ls
  60r 2.8168462e+03 5.35e-01 2.13e+03  -0.3 3.97e-02   5.3 1.44e-01 1.40e-02h  1
  61r 2.8168462e+03 5.35e-01 2.27e+03  -0.3 3.33e-02   4.9 7.89e-01 5.00e-01h  2
  62r 2.8168462e+03 5.35e-01 2.57e+03  -0.3 1.50e-02   5.3 6.33e-01 5.00e-01h  2
  63r 2.8168462e+03 5.35e-01 3.35e+03  -0.3 6.56e-03   5.7 1.00e+00 1.00e+00h  1
  64r 2.8168462e+03 5.35e-01 5.82e+02  -0.3 3.42e-03   5.2 1.00e+00 1.00e+00f  1
  65r 2.8168462e+03 5.35e-01 4.84e+02  -0.3 7.40e-03   4.8 1.00e+00 1.00e+00F  1
  66r 2.8168462e+03 5.35e-01 5.07e+02  -0.3 3.35e-03   5.2 1.00e+00 1.00e+00f  1
  67r 2.8168462e+03 5.35e-01 7.66e+02  -0.3 1.59e-02   4.7 1.00e+00 6.70e-01f  1
  68r 2.8168462e+03 5.35e-01 1.25e+03  -0.3 9.25e-02   4.2 2.96e-01 5.36e-01F  1
  69r 2.8168462e+03 5.35e-01 1.21e+03  -0.3 2.16e-01   3.7 2.55e-02 4.79e-02f  1
iter    objective    inf_pr   inf_du lg(mu)  ||d||  lg(rg) alpha_du alpha_pr  ls
  70r 2.8168462e+03 5.35e-01 1.27e+03  -0.3 4.27e-02   4.2 1.00e+00 9.66e-01F  1
  71r 2.8168462e+03 5.35e-01 2.28e+03  -0.3 3.56e-02   4.6 1.00e+00 2.67e-01h  2
  72r 2.8168462e+03 5.35e-01 3.20e+03  -0.3 5.09e-02   4.1 1.00e+00 1.81e-01f  2
  73r 2.8168462e+03 5.35e-01 9.50e+03  -0.3 5.53e-02   3.6 1.00e+00 8.45e-02f  2
  74r 2.8168462e+03 5.35e-01 1.73e+04  -0.3 1.08e-02   3.2 1.00e+00 1.00e+00F  1
  75r 2.8168462e+03 5.35e-01 1.48e+04  -0.3 6.35e-03   3.6 1.00e+00 1.00e+00F  1
  76r 2.8168462e+03 5.36e-01 2.14e+03  -0.3 1.76e-02   3.1 1.00e+00 6.56e-01H  1
  77r 2.8168462e+03 5.36e-01 4.07e+03  -0.3 5.43e-02   2.6 1.00e+00 1.00e+00F  1
  78r 2.8168462e+03 5.36e-01 3.50e+03  -0.3 1.27e-01   2.2 7.75e-01 1.12e-01h  1
  79r 2.8168462e+03 5.36e-01 3.01e+03  -0.3 3.88e-01   1.7 1.00e+00 1.25e-01h  4
iter    objective    inf_pr   inf_du lg(mu)  ||d||  lg(rg) alpha_du alpha_pr  ls
  80r 2.8168462e+03 5.36e-01 3.02e+03  -0.3 1.89e+00   1.2 1.54e-01 2.29e-03f  1
  81r 2.8168462e+03 5.40e-01 3.65e+03  -0.3 3.75e+00   0.7 6.84e-02 1.00e+00f  1
  82r 2.8168462e+03 5.40e-01 4.77e+03  -0.3 9.06e+00   0.3 2.81e-01 7.62e-02f  1
  83r 2.8168462e+03 5.40e-01 4.48e+03  -0.3 1.29e+00  -0.2 6.99e-01 6.46e-02f  1
  84r 2.8168462e+03 5.41e-01 1.07e+03  -0.3 4.37e+00  -0.7 1.00e+00 2.52e-01f  1
  85r 2.8168462e+03 5.45e-01 9.95e+02  -0.3 1.13e+01  -1.2 4.81e-01 6.26e-01f  1
  86r 2.8168462e+03 5.47e-01 9.59e+02  -0.3 4.23e+00  -0.8 1.00e+00 7.73e-01F  1
  87r 2.8168462e+03 5.47e-01 9.06e+02  -0.3 3.15e+01  -1.2 2.04e-02 4.89e-02h  1
  88r 2.8168462e+03 5.47e-01 8.25e+02  -0.3 4.70e+00  -0.8 4.65e-02 1.02e-01h  1
  89r 2.8168462e+03 5.44e-01 6.54e+02  -0.3 1.63e+01  -1.3 2.25e-01 1.85e-01h  1
iter    objective    inf_pr   inf_du lg(mu)  ||d||  lg(rg) alpha_du alpha_pr  ls
  90r 2.8168462e+03 5.45e-01 4.01e+02  -0.3 3.80e+01  -1.8 3.09e-01 4.13e-01h  1
  91r 2.8168462e+03 5.45e-01 3.28e+02  -0.3 1.43e+01  -1.3 1.00e+00 3.05e-01h  1
  92r 2.8168462e+03 5.44e-01 4.68e+02  -0.3 9.75e+01  -1.8 1.11e-01 4.39e-02f  1
  93r 2.8168462e+03 5.47e-01 4.97e+02  -0.3 1.24e+01  -1.4 1.00e+00 3.68e-01h  1
  94r 2.8168462e+03 5.52e-01 4.97e+00  -0.3 2.67e+00  -1.0 1.00e+00 1.00e+00h  1
  95r 2.8168462e+03 5.53e-01 1.77e+02  -1.7 9.56e+00  -1.4 5.96e-01 3.06e-01f  1
  96r 2.8168462e+03 5.60e-01 3.10e+01  -1.7 4.08e+00  -1.0 4.91e-01 5.92e-01f  1
  97r 2.8168462e+03 5.60e-01 2.38e+02  -1.7 3.34e+01  -1.5 4.75e-01 2.54e-01f  1
  98r 2.8168462e+03 5.62e-01 1.67e+02  -1.7 7.32e+00  -1.1 1.00e+00 2.53e-01f  1
  99r 2.8168463e+03 5.62e-01 2.35e+02  -1.7 2.36e+01  -1.5 4.11e-01 2.02e-01f  1
iter    objective    inf_pr   inf_du lg(mu)  ||d||  lg(rg) alpha_du alpha_pr  ls
 100r 2.8168463e+03 5.63e-01 5.81e+02  -1.7 6.30e+00  -1.1 1.00e+00 3.29e-01f  1
 101r 2.8168463e+03 5.63e-01 6.55e+02  -1.7 7.13e+00  -1.6 3.40e-01 9.84e-02f  1
 102r 2.8168463e+03 5.63e-01 3.40e+02  -1.7 1.83e+00  -1.2 9.43e-01 6.85e-01f  1
 103r 2.8168463e+03 5.62e-01 2.68e+02  -1.7 1.75e+01  -1.6 2.33e-01 1.08e-01f  1
 104r 2.8168463e+03 5.65e-01 1.34e+00  -1.7 3.36e+00  -1.2 1.00e+00 1.00e+00f  1
 105r 2.8168463e+03 5.62e-01 6.02e+01  -1.7 2.35e+02  -1.7 3.87e-02 2.95e-02f  1
 106r 2.8168463e+03 5.63e-01 2.25e+01  -1.7 1.15e+01  -1.3 1.00e+00 1.00e+00f  1
 107r 2.8168463e+03 5.62e-01 1.73e+02  -1.7 5.99e+00  -0.8 8.88e-01 3.42e-01f  1
 108r 2.8168463e+03 5.62e-01 4.00e+02  -1.7 1.52e+01  -1.3 1.00e+00 2.07e-02f  1
 109r 2.8168463e+03 5.63e-01 7.10e+02  -1.7 5.54e+00  -1.8 9.09e-01 1.61e-01f  1
iter    objective    inf_pr   inf_du lg(mu)  ||d||  lg(rg) alpha_du alpha_pr  ls
 110r 2.8168463e+03 5.71e-01 3.06e+02  -1.7 1.56e+00  -1.4 1.00e+00 6.07e-01f  1
 111r 2.8168463e+03 5.68e-01 4.79e+00  -1.7 7.86e+00  -1.8 9.55e-01 1.00e+00f  1
 112r 2.8168463e+03 5.68e-01 1.01e+00  -1.7 3.81e+00  -1.4 1.00e+00 1.00e+00f  1
 113r 2.8168463e+03 5.62e-01 7.93e+01  -2.5 3.14e+01  -1.9 1.96e-01 3.72e-01f  1
 114r 2.8168463e+03 5.62e-01 3.39e+01  -2.5 1.13e+01  -1.5 7.96e-01 8.72e-01f  1
 115r 2.8168463e+03 5.62e-01 6.21e+01  -2.5 5.04e+00  -1.0 1.00e+00 5.81e-01f  1
 116r 2.8168463e+03 5.62e-01 3.45e+02  -2.5 1.74e+01  -1.5 1.00e+00 1.67e-02f  1
 117r 2.8168423e+03 4.62e-01 2.08e+02  -2.5 7.60e+03    -  6.00e-01 2.05e-01f  1
 118  2.9200561e+03 4.61e-01 4.83e+04  -1.0 6.98e+07    -  4.59e-02 1.50e-03h  6
 119  3.2754924e+03 4.59e-01 1.23e+05  -1.0 7.63e+07    -  4.34e-02 4.17e-03h  5
iter    objective    inf_pr   inf_du lg(mu)  ||d||  lg(rg) alpha_du alpha_pr  ls
 120  3.6556473e+03 4.58e-01 1.83e+05  -1.0 7.65e+07    -  4.71e-02 3.96e-03h  5
 121  4.0412878e+03 4.56e-01 2.01e+05  -1.0 7.50e+07    -  5.16e-02 3.71e-03h  5
 122  4.4271228e+03 4.54e-01 2.05e+05  -1.0 7.29e+07    -  5.49e-02 3.50e-03h  5
 123  4.8093855e+03 4.53e-01 2.07e+05  -1.0 7.05e+07    -  5.55e-02 3.33e-03h  5
 124  5.5765812e+03 4.50e-01 2.10e+05  -1.0 6.83e+07    -  5.73e-02 6.35e-03h  4
 125  6.3026669e+03 4.47e-01 2.06e+05  -1.0 6.41e+07    -  5.83e-02 5.74e-03h  4
 126  6.9798189e+03 4.45e-01 2.13e+05  -1.0 6.20e+07    -  5.81e-02 5.16e-03h  4
 127  8.2575752e+03 4.41e-01 2.79e+05  -1.0 6.15e+07    -  8.81e-02 9.24e-03h  3
 128  1.2798092e+04 4.30e-01 8.49e+05  -1.0 5.96e+07    -  8.53e-02 2.88e-02w  1
 129  1.2847781e+04 4.30e-01 1.72e+06  -1.0 4.60e+07    -  1.59e-01 3.42e-04w  1
iter    objective    inf_pr   inf_du lg(mu)  ||d||  lg(rg) alpha_du alpha_pr  ls
 130  1.3040612e+04 2.52e+01 1.29e+08  -1.0 2.25e+08    -  3.28e-02 4.43e-03w  1
 131  9.2935150e+03 4.38e-01 3.12e+05  -1.0 2.63e+08    -  8.53e-02 7.19e-03h  2
 132  1.0974331e+04 4.33e-01 3.74e+05  -1.0 5.78e+07    -  8.44e-02 1.11e-02h  2
 133  1.2813909e+04 4.29e-01 1.48e+06  -1.0 5.40e+07    -  1.40e-01 1.17e-02h  1
 134  1.2815395e+04 4.29e-01 4.14e+06  -1.0 2.22e+08    -  3.46e-02 5.99e-05h  6
 135  1.2816151e+04 4.29e-01 3.16e+07  -1.0 2.34e+08    -  3.34e-02 3.92e-05h  8
 136  1.2816980e+04 4.29e-01 2.22e+08  -1.0 2.35e+08    -  3.40e-02 4.35e-05h  8
 137  1.2817806e+04 4.29e-01 1.99e+09  -1.0 2.36e+08    -  4.55e-02 4.31e-05h  8
 138  1.2818155e+04 4.29e-01 4.60e+09  -1.0 2.42e+08    -  4.51e-02 2.08e-05h  9
 139r 1.2818155e+04 4.29e-01 1.00e+03  -0.4 0.00e+00    -  0.00e+00 3.18e-07R 15
iter    objective    inf_pr   inf_du lg(mu)  ||d||  lg(rg) alpha_du alpha_pr  ls
 140r 1.2818151e+04 4.28e-01 9.89e+02  -0.4 1.52e+03    -  2.67e-01 9.55e-03f  1
 141r 1.2818152e+04 4.15e-01 8.34e+02  -0.4 1.50e+03    -  9.58e-01 1.57e-01f  1
 142r 1.2818039e+04 2.27e+00 6.11e+01  -0.4 1.23e+03    -  9.90e-01 1.00e+00f  1
 143r 1.2818039e+04 2.01e+00 4.77e+01  -0.4 3.75e+01   0.0 9.57e-02 1.13e-01f  1
 144r 1.2818043e+04 1.94e+00 8.24e+02  -0.4 1.45e+02    -  9.90e-01 3.72e-02f  1
 145r 1.2818123e+04 3.56e-01 6.26e+01  -0.4 1.70e+02    -  9.90e-01 1.00e+00f  1
 146  1.2907515e+04 3.56e-01 2.80e+03  -1.0 4.52e+07    -  1.11e-01 6.31e-04h  1
 147r 1.2907515e+04 3.56e-01 9.99e+02  -0.4 0.00e+00    -  0.00e+00 4.72e-07R  5
 148r 1.2907519e+04 3.31e-01 4.18e+02  -0.4 8.74e+02    -  9.49e-01 5.82e-01f  1
 149r 1.2907484e+04 2.82e-01 7.16e+00  -0.4 1.06e+03    -  9.44e-01 1.00e+00f  1
iter    objective    inf_pr   inf_du lg(mu)  ||d||  lg(rg) alpha_du alpha_pr  ls
 150  1.2916116e+04 2.82e-01 2.43e+03  -1.0 5.33e+07    -  7.83e-02 5.59e-05h  1
 151  1.2916415e+04 2.82e-01 3.05e+06  -1.0 2.41e+08    -  3.34e-02 2.64e-05h  1
 152  1.2920252e+04 2.82e-01 1.86e+07  -1.0 2.48e+08    -  3.27e-02 3.91e-04h  5
 153  1.2922439e+04 2.81e-01 1.10e+08  -1.0 2.54e+08    -  3.54e-02 2.22e-04h  6
 154  1.2924678e+04 2.81e-01 7.43e+08  -1.0 2.58e+08    -  4.10e-02 2.17e-04h  6
 155  1.2926960e+04 2.81e-01 2.25e+09  -1.0 2.62e+08    -  5.26e-02 2.11e-04h  6
 156  1.2928072e+04 2.81e-01 4.30e+09  -1.0 2.65e+08    -  6.58e-02 1.03e-04h  7
 157  1.2929195e+04 2.81e-01 6.69e+09  -1.0 2.67e+08    -  6.63e-02 1.01e-04h  7
 158  1.2930329e+04 2.81e-01 9.08e+09  -1.0 2.68e+08    -  6.86e-02 1.00e-04h  7
 159  1.2931471e+04 2.81e-01 1.16e+10  -1.0 2.70e+08    -  7.36e-02 9.86e-05h  7
iter    objective    inf_pr   inf_du lg(mu)  ||d||  lg(rg) alpha_du alpha_pr  ls
 160r 1.2931471e+04 2.81e-01 1.00e+03  -0.6 0.00e+00    -  0.00e+00 3.71e-07R 15
 161r 1.2931461e+04 2.56e-01 6.97e+02  -0.6 1.88e+03    -  9.85e-01 3.02e-01f  1
 162r 1.2931424e+04 2.35e-01 3.90e+00  -0.6 1.23e+03    -  9.90e-01 1.00e+00f  1
 163  1.2935141e+04 2.35e-01 3.58e+03  -1.0 4.87e+07    -  9.06e-02 2.51e-05h  1
 164r 1.2935141e+04 2.35e-01 9.99e+02  -0.6 0.00e+00    -  0.00e+00 2.97e-07R  7
 165r 1.2935140e+04 2.35e-01 7.69e+02  -0.6 8.68e+02    -  9.55e-01 2.30e-01f  1
 166r 1.2935091e+04 2.36e-01 1.02e+01  -0.6 1.78e+03    -  9.23e-01 1.00e+00f  1
 167r 1.2935085e+04 2.36e-01 1.38e-01  -0.6 7.64e+01    -  9.90e-01 1.00e+00h  1
 168r 1.2935085e+04 2.36e-01 9.34e+01  -0.6 8.84e+00  -4.0 1.66e-01 3.12e-02f  6
 169r 1.2935085e+04 2.36e-01 1.78e+01  -0.6 2.85e-03   3.8 9.90e-01 1.00e+00f  1
iter    objective    inf_pr   inf_du lg(mu)  ||d||  lg(rg) alpha_du alpha_pr  ls
 170r 1.2935085e+04 2.36e-01 8.82e+00  -0.6 2.55e-03   3.4 9.91e-01 1.00e+00f  1
 171r 1.2935085e+04 2.37e-01 4.10e+01  -1.3 2.13e-03   3.8 1.00e+00 8.80e-01f  1
 172r 1.2935085e+04 2.36e-01 1.46e+01  -1.3 8.21e-03   3.3 1.00e+00 1.00e+00f  1
 173r 1.2935085e+04 2.36e-01 1.76e+01  -1.3 4.95e-02   2.8 1.00e+00 1.00e+00f  1
 174r 1.2935085e+04 2.37e-01 1.78e+01  -1.3 7.86e-02   2.4 1.00e+00 1.00e+00f  1
 175r 1.2935085e+04 2.37e-01 1.79e+01  -1.3 2.34e-01   1.9 1.00e+00 1.00e+00f  1
 176r 1.2935085e+04 2.37e-01 1.81e+01  -1.3 7.08e-01   1.4 1.00e+00 1.00e+00f  1
 177r 1.2935085e+04 2.37e-01 1.89e+01  -1.3 2.21e+00   0.9 1.00e+00 1.00e+00f  1
 178r 1.2935085e+04 2.37e-01 8.03e+01  -1.3 7.41e+00   0.5 8.90e-01 3.17e-01f  1
 179r 1.2935084e+04 2.37e-01 8.28e+02  -1.3 2.02e+03    -  9.36e-01 1.81e-03f  1
iter    objective    inf_pr   inf_du lg(mu)  ||d||  lg(rg) alpha_du alpha_pr  ls
 180r 1.2934952e+04 2.38e-01 1.17e+02  -1.3 2.01e+03    -  1.00e+00 9.01e-01f  1
 181r 1.2934941e+04 2.38e-01 2.09e-01  -1.3 2.20e+02    -  1.00e+00 1.00e+00h  1
 182r 1.2934922e+04 2.39e-01 7.03e+00  -3.0 8.66e+01    -  1.00e+00 9.46e-01f  1
 183r 1.2934747e+04 2.39e-01 1.73e+02  -3.0 1.20e+04    -  1.00e+00 1.23e-01f  1
 184r 1.2934746e+04 2.39e-01 1.93e+02  -3.0 1.06e+04    -  1.01e-02 5.52e-04f  1
 185r 1.2934736e+04 2.39e-01 5.35e+02  -3.0 1.34e+04    -  1.37e-01 8.51e-03f  1
 186r 1.2934694e+04 2.39e-01 5.11e+02  -3.0 1.48e+04    -  3.62e-03 3.88e-02f  1
 187r 1.2934547e+04 2.39e-01 4.35e+02  -3.0 1.93e+04    -  6.86e-02 1.51e-01f  1
 188r 1.2934592e+04 2.39e-01 1.06e+03  -3.0 3.08e+04    -  2.53e-01 2.39e-03f  1
 189r 1.2935661e+04 2.39e-01 8.14e+02  -3.0 1.39e+04    -  8.65e-04 1.14e-01f  1
iter    objective    inf_pr   inf_du lg(mu)  ||d||  lg(rg) alpha_du alpha_pr  ls
 190r 1.2936310e+04 2.39e-01 6.40e+02  -3.0 7.33e+03    -  4.80e-01 2.13e-01f  1
 191r 1.2936661e+04 2.39e-01 5.47e+02  -3.0 5.30e+03    -  1.68e-02 1.44e-01f  1
 192r 1.2936706e+04 2.39e-01 1.10e+03  -3.0 5.20e+03    -  6.19e-01 2.18e-02f  1
 193r 1.2938071e+04 2.39e-01 2.26e+02  -3.0 5.18e+03    -  1.73e-01 6.71e-01f  1
 194r 1.2938749e+04 2.39e-01 1.82e+00  -3.0 2.03e+03    -  1.00e+00 9.97e-01f  1
 195r 1.2938746e+04 2.39e-01 1.33e-04  -3.0 5.78e+02    -  1.00e+00 1.00e+00f  1
 196r 1.2938746e+04 2.39e-01 6.63e-03  -4.6 2.05e+02    -  1.00e+00 1.00e+00f  1
 197r 1.2939112e+04 2.39e-01 2.29e+02  -4.6 3.63e+04    -  1.50e-01 2.22e-02f  1
 198r 1.2939316e+04 2.39e-01 1.02e+03  -4.6 3.86e+04    -  4.94e-01 1.27e-02f  1
 199r 1.2939561e+04 2.39e-01 1.46e+03  -4.6 3.50e+04    -  1.00e+00 1.48e-02f  1
iter    objective    inf_pr   inf_du lg(mu)  ||d||  lg(rg) alpha_du alpha_pr  ls
 200r 1.2941203e+04 2.39e-01 1.30e+03  -4.6 3.45e+04    -  6.87e-01 1.01e-01f  1
 201r 1.2941772e+04 2.39e-01 1.23e+03  -4.6 3.10e+04    -  1.00e+00 3.87e-02f  1
 202r 1.2942995e+04 2.39e-01 9.99e+02  -4.6 2.98e+04    -  1.00e+00 8.58e-02f  1
 203r 1.2944777e+04 2.39e-01 9.07e+02  -4.6 2.71e+04    -  1.00e+00 1.36e-01f  1
 204r 1.2945794e+04 2.39e-01 7.65e+02  -4.6 2.21e+04    -  1.00e+00 8.78e-02f  1
 205r 1.2946950e+04 2.39e-01 6.87e+02  -4.6 1.34e+04    -  1.00e+00 1.08e-01f  1
 206r 1.2951137e+04 2.39e-01 3.16e+02  -4.6 1.20e+04    -  1.00e+00 4.33e-01f  1
 207r 1.2956644e+04 2.39e-01 4.79e-03  -4.6 6.78e+03    -  1.00e+00 1.00e+00f  1
 208r 1.2956644e+04 2.39e-01 5.43e-08  -4.6 1.13e+02    -  1.00e+00 1.00e+00h  1
 209r 1.2956644e+04 2.39e-01 3.47e-03  -6.8 4.17e-01    -  1.00e+00 1.00e+00f  1
iter    objective    inf_pr   inf_du lg(mu)  ||d||  lg(rg) alpha_du alpha_pr  ls
 210r 1.2974856e+04 2.39e-01 2.36e+02  -6.8 6.69e+05    -  4.60e-01 7.54e-02f  1
 211r 1.2974856e+04 2.39e-01 7.35e+02  -6.8 7.43e+05    -  1.00e+00 3.09e-07f  1
 212r 1.2977887e+04 2.39e-01 7.34e+02  -6.8 7.43e+05    -  3.40e-01 1.43e-02f  1
 213r 1.2977971e+04 2.39e-01 8.23e+02  -6.8 5.19e+05    -  1.00e+00 3.68e-04f  1
 214r 1.2994258e+04 2.39e-01 7.65e+02  -6.8 5.19e+05    -  6.28e-01 7.06e-02f  1
 215r 1.2997692e+04 2.39e-01 7.80e+02  -6.8 5.01e+05    -  1.00e+00 1.66e-02f  1
 216r 1.3005727e+04 2.39e-01 7.50e+02  -6.8 4.96e+05    -  5.19e-01 3.92e-02f  1
 217r 1.3010198e+04 2.39e-01 7.28e+02  -6.8 4.71e+05    -  1.00e+00 2.10e-02f  1
 218r 1.3021302e+04 2.39e-01 6.97e+02  -6.8 1.28e+05    -  1.00e+00 5.08e-02f  1
 219r 1.3234033e+04 2.39e-01 2.89e-01  -6.8 1.01e+05    -  1.00e+00 1.00e+00f  1
iter    objective    inf_pr   inf_du lg(mu)  ||d||  lg(rg) alpha_du alpha_pr  ls
 220r 1.3234338e+04 2.39e-01 7.95e-05  -6.8 2.63e+02    -  1.00e+00 1.00e+00h  1
 221r 1.3234338e+04 2.39e-01 1.06e-11  -6.8 1.84e-01    -  1.00e+00 1.00e+00h  1
 222r 1.3234338e+04 2.39e-01 3.20e-04  -9.0 1.30e-02    -  1.00e+00 1.00e+00f  1
 223r 1.4110426e+04 2.37e-01 1.86e+02  -9.0 1.96e+06    -  1.00e+00 2.63e-01f  1
 224r 1.6263425e+04 2.34e-01 1.17e+01  -9.0 8.73e+05    -  1.00e+00 1.00e+00f  1
 225r 1.6351798e+04 2.34e-01 4.95e+00  -9.0 4.11e+04    -  1.00e+00 8.92e-01h  1
 226r 1.6359901e+04 2.34e-01 1.13e-03  -9.0 4.80e+03    -  1.00e+00 1.00e+00h  1

Number of Iterations....: 226

                                   (scaled)                 (unscaled)
Objective...............:   1.6359904678799448e+04    1.6359904678799448e+04
Dual infeasibility......:   6.6177913911659556e-04    6.6177913911659556e-04
Constraint violation....:   2.3397702611710602e-01    2.3397702611710602e-01
Complementarity.........:   9.0909106380451391e-10    9.0909106380451391e-10
Overall NLP error.......:   2.3397702611710602e-01    2.3397702611710602e-01


Number of objective function evaluations             = 572
Number of objective gradient evaluations             = 57
Number of equality constraint evaluations            = 572
Number of inequality constraint evaluations          = 0
Number of equality constraint Jacobian evaluations   = 233
Number of inequality constraint Jacobian evaluations = 0
Number of Lagrangian Hessian evaluations             = 227
Total CPU secs in IPOPT (w/o function evaluations)   =      0.299
Total CPU secs in NLP function evaluations           =      5.776

EXIT: Converged to a point of local infeasibility. Problem may be infeasible.
